p cnf 15 25
a 2 6 0
e 1 3 4 5 7 8 9 10 11 12 13 14 15 0
-3 1 0
-3 2 0
-1 -2 3 0
6 -4 0
6 5 0
4 -5 -6 0
9 7 0
9 -8 0
-7 8 -9 0
-12 -10 0
-12 -11 0
10 11 12 0
13 -9 0
13 -12 0
9 12 -13 0
6 -13 -14 0
-6 13 -14 0
6 13 14 0
-6 -13 14 0
15 -3 0
15 -14 0
3 14 -15 0
-13 -7 2 0
-4 14 12 1 -8 7 6 0
15 0
